p cnf 431 1720
c p weight 176 0 0
c p weight -176 1 0
c p weight 177 1.0 0
c p weight -177 1 0
172 -171 169 0
172 -171 170 0
-172 171 169 0
-172 171 170 0
172 171 -169 -170 0
-172 -171 -169 -170 0
173 169 -170 0
173 -169 170 0
-173 169 170 0
-173 -169 -170 0
174 175 -172 0
174 -172 173 0
-174 175 172 0
-174 172 173 0
174 -172 -169 0
-174 172 -169 0
174 -175 172 169 -173 0
-174 -175 -172 169 -173 0
175 -169 173 0
-175 169 173 0
-176 173 0
175 -176 -169 0
-175 -176 169 0
175 176 169 -173 0
-175 176 -169 -173 0
-177 173 0
175 -177 169 0
-175 -177 -169 0
175 177 -169 -173 0
-175 177 169 -173 0
178 -174 175 0
178 -174 173 0
-178 174 175 0
-178 174 173 0
178 174 -175 -173 0
-178 -174 -175 -173 0
179 175 -173 0
179 -175 173 0
-179 175 173 0
-179 -175 -173 0
180 -178 175 0
180 -178 168 0
-180 178 175 0
-180 178 168 0
180 -178 167 -179 0
180 -178 -167 179 0
-180 178 167 -179 0
-180 178 -167 179 0
180 178 -175 167 179 -168 0
180 178 -175 -167 -179 -168 0
-180 -178 -175 167 179 -168 0
-180 -178 -175 -167 -179 -168 0
182 175 -167 0
182 -175 167 0
-182 175 167 0
-182 -175 -167 0
181 179 -168 0
181 -179 168 0
-181 179 168 0
-181 -179 -168 0
183 -180 182 0
183 -180 166 0
-183 180 182 0
-183 180 166 0
183 -180 165 -168 0
183 -180 -165 168 0
-183 180 165 -168 0
-183 180 -165 168 0
183 180 -182 165 168 -166 0
183 180 -182 -165 -168 -166 0
-183 -180 -182 165 168 -166 0
-183 -180 -182 -165 -168 -166 0
185 182 -165 0
185 -182 165 0
-185 182 165 0
-185 -182 -165 0
184 168 -166 0
184 -168 166 0
-184 168 166 0
-184 -168 -166 0
186 -183 185 0
186 -183 164 0
-186 183 185 0
-186 183 164 0
186 -183 163 -166 0
186 -183 -163 166 0
-186 183 163 -166 0
-186 183 -163 166 0
186 183 -185 163 166 -164 0
186 183 -185 -163 -166 -164 0
-186 -183 -185 163 166 -164 0
-186 -183 -185 -163 -166 -164 0
188 185 -163 0
188 -185 163 0
-188 185 163 0
-188 -185 -163 0
187 166 -164 0
187 -166 164 0
-187 166 164 0
-187 -166 -164 0
189 -186 188 0
189 -186 162 0
-189 186 188 0
-189 186 162 0
189 -186 161 -164 0
189 -186 -161 164 0
-189 186 161 -164 0
-189 186 -161 164 0
189 186 -188 161 164 -162 0
189 186 -188 -161 -164 -162 0
-189 -186 -188 161 164 -162 0
-189 -186 -188 -161 -164 -162 0
191 188 -161 0
191 -188 161 0
-191 188 161 0
-191 -188 -161 0
190 164 -162 0
190 -164 162 0
-190 164 162 0
-190 -164 -162 0
192 -189 191 0
192 -189 160 0
-192 189 191 0
-192 189 160 0
192 -189 159 -162 0
192 -189 -159 162 0
-192 189 159 -162 0
-192 189 -159 162 0
192 189 -191 159 162 -160 0
192 189 -191 -159 -162 -160 0
-192 -189 -191 159 162 -160 0
-192 -189 -191 -159 -162 -160 0
194 191 -159 0
194 -191 159 0
-194 191 159 0
-194 -191 -159 0
193 162 -160 0
193 -162 160 0
-193 162 160 0
-193 -162 -160 0
195 -192 194 0
195 -192 158 0
-195 192 194 0
-195 192 158 0
195 -192 157 -160 0
195 -192 -157 160 0
-195 192 157 -160 0
-195 192 -157 160 0
195 192 -194 157 160 -158 0
195 192 -194 -157 -160 -158 0
-195 -192 -194 157 160 -158 0
-195 -192 -194 -157 -160 -158 0
197 194 -157 0
197 -194 157 0
-197 194 157 0
-197 -194 -157 0
196 160 -158 0
196 -160 158 0
-196 160 158 0
-196 -160 -158 0
198 -195 197 0
198 -195 156 0
-198 195 197 0
-198 195 156 0
198 -195 155 -158 0
198 -195 -155 158 0
-198 195 155 -158 0
-198 195 -155 158 0
198 195 -197 155 158 -156 0
198 195 -197 -155 -158 -156 0
-198 -195 -197 155 158 -156 0
-198 -195 -197 -155 -158 -156 0
200 197 -155 0
200 -197 155 0
-200 197 155 0
-200 -197 -155 0
199 158 -156 0
199 -158 156 0
-199 158 156 0
-199 -158 -156 0
201 -198 200 0
201 -198 154 0
-201 198 200 0
-201 198 154 0
201 -198 153 -156 0
201 -198 -153 156 0
-201 198 153 -156 0
-201 198 -153 156 0
201 198 -200 153 156 -154 0
201 198 -200 -153 -156 -154 0
-201 -198 -200 153 156 -154 0
-201 -198 -200 -153 -156 -154 0
203 200 -153 0
203 -200 153 0
-203 200 153 0
-203 -200 -153 0
202 156 -154 0
202 -156 154 0
-202 156 154 0
-202 -156 -154 0
204 -201 203 0
204 -201 152 0
-204 201 203 0
-204 201 152 0
204 -201 151 -154 0
204 -201 -151 154 0
-204 201 151 -154 0
-204 201 -151 154 0
204 201 -203 151 154 -152 0
204 201 -203 -151 -154 -152 0
-204 -201 -203 151 154 -152 0
-204 -201 -203 -151 -154 -152 0
206 203 -151 0
206 -203 151 0
-206 203 151 0
-206 -203 -151 0
205 154 -152 0
205 -154 152 0
-205 154 152 0
-205 -154 -152 0
207 -204 206 0
207 -204 150 0
-207 204 206 0
-207 204 150 0
207 -204 149 -152 0
207 -204 -149 152 0
-207 204 149 -152 0
-207 204 -149 152 0
207 204 -206 149 152 -150 0
207 204 -206 -149 -152 -150 0
-207 -204 -206 149 152 -150 0
-207 -204 -206 -149 -152 -150 0
209 206 -149 0
209 -206 149 0
-209 206 149 0
-209 -206 -149 0
208 152 -150 0
208 -152 150 0
-208 152 150 0
-208 -152 -150 0
210 -207 209 0
210 -207 148 0
-210 207 209 0
-210 207 148 0
210 -207 147 -150 0
210 -207 -147 150 0
-210 207 147 -150 0
-210 207 -147 150 0
210 207 -209 147 150 -148 0
210 207 -209 -147 -150 -148 0
-210 -207 -209 147 150 -148 0
-210 -207 -209 -147 -150 -148 0
212 209 -147 0
212 -209 147 0
-212 209 147 0
-212 -209 -147 0
211 150 -148 0
211 -150 148 0
-211 150 148 0
-211 -150 -148 0
213 -210 212 0
213 -210 146 0
-213 210 212 0
-213 210 146 0
213 -210 145 -148 0
213 -210 -145 148 0
-213 210 145 -148 0
-213 210 -145 148 0
213 210 -212 145 148 -146 0
213 210 -212 -145 -148 -146 0
-213 -210 -212 145 148 -146 0
-213 -210 -212 -145 -148 -146 0
215 212 -145 0
215 -212 145 0
-215 212 145 0
-215 -212 -145 0
214 148 -146 0
214 -148 146 0
-214 148 146 0
-214 -148 -146 0
216 -213 215 0
216 -213 144 0
-216 213 215 0
-216 213 144 0
216 -213 143 -146 0
216 -213 -143 146 0
-216 213 143 -146 0
-216 213 -143 146 0
216 213 -215 143 146 -144 0
216 213 -215 -143 -146 -144 0
-216 -213 -215 143 146 -144 0
-216 -213 -215 -143 -146 -144 0
218 215 -143 0
218 -215 143 0
-218 215 143 0
-218 -215 -143 0
217 146 -144 0
217 -146 144 0
-217 146 144 0
-217 -146 -144 0
219 -216 218 0
219 -216 142 0
-219 216 218 0
-219 216 142 0
219 -216 141 -144 0
219 -216 -141 144 0
-219 216 141 -144 0
-219 216 -141 144 0
219 216 -218 141 144 -142 0
219 216 -218 -141 -144 -142 0
-219 -216 -218 141 144 -142 0
-219 -216 -218 -141 -144 -142 0
221 218 -141 0
221 -218 141 0
-221 218 141 0
-221 -218 -141 0
220 144 -142 0
220 -144 142 0
-220 144 142 0
-220 -144 -142 0
222 -219 221 0
222 -219 140 0
-222 219 221 0
-222 219 140 0
222 -219 139 -142 0
222 -219 -139 142 0
-222 219 139 -142 0
-222 219 -139 142 0
222 219 -221 139 142 -140 0
222 219 -221 -139 -142 -140 0
-222 -219 -221 139 142 -140 0
-222 -219 -221 -139 -142 -140 0
224 221 -139 0
224 -221 139 0
-224 221 139 0
-224 -221 -139 0
223 142 -140 0
223 -142 140 0
-223 142 140 0
-223 -142 -140 0
225 -222 224 0
225 -222 138 0
-225 222 224 0
-225 222 138 0
225 -222 137 -140 0
225 -222 -137 140 0
-225 222 137 -140 0
-225 222 -137 140 0
225 222 -224 137 140 -138 0
225 222 -224 -137 -140 -138 0
-225 -222 -224 137 140 -138 0
-225 -222 -224 -137 -140 -138 0
227 224 -137 0
227 -224 137 0
-227 224 137 0
-227 -224 -137 0
226 140 -138 0
226 -140 138 0
-226 140 138 0
-226 -140 -138 0
228 -225 227 0
228 -225 136 0
-228 225 227 0
-228 225 136 0
228 -225 135 -138 0
228 -225 -135 138 0
-228 225 135 -138 0
-228 225 -135 138 0
228 225 -227 135 138 -136 0
228 225 -227 -135 -138 -136 0
-228 -225 -227 135 138 -136 0
-228 -225 -227 -135 -138 -136 0
230 227 -135 0
230 -227 135 0
-230 227 135 0
-230 -227 -135 0
229 138 -136 0
229 -138 136 0
-229 138 136 0
-229 -138 -136 0
231 -228 230 0
231 -228 134 0
-231 228 230 0
-231 228 134 0
231 -228 133 -136 0
231 -228 -133 136 0
-231 228 133 -136 0
-231 228 -133 136 0
231 228 -230 133 136 -134 0
231 228 -230 -133 -136 -134 0
-231 -228 -230 133 136 -134 0
-231 -228 -230 -133 -136 -134 0
233 230 -133 0
233 -230 133 0
-233 230 133 0
-233 -230 -133 0
232 136 -134 0
232 -136 134 0
-232 136 134 0
-232 -136 -134 0
234 -231 233 0
234 -231 132 0
-234 231 233 0
-234 231 132 0
234 -231 131 -134 0
234 -231 -131 134 0
-234 231 131 -134 0
-234 231 -131 134 0
234 231 -233 131 134 -132 0
234 231 -233 -131 -134 -132 0
-234 -231 -233 131 134 -132 0
-234 -231 -233 -131 -134 -132 0
236 233 -131 0
236 -233 131 0
-236 233 131 0
-236 -233 -131 0
235 134 -132 0
235 -134 132 0
-235 134 132 0
-235 -134 -132 0
237 -234 236 0
237 -234 130 0
-237 234 236 0
-237 234 130 0
237 -234 129 -132 0
237 -234 -129 132 0
-237 234 129 -132 0
-237 234 -129 132 0
237 234 -236 129 132 -130 0
237 234 -236 -129 -132 -130 0
-237 -234 -236 129 132 -130 0
-237 -234 -236 -129 -132 -130 0
239 236 -129 0
239 -236 129 0
-239 236 129 0
-239 -236 -129 0
238 132 -130 0
238 -132 130 0
-238 132 130 0
-238 -132 -130 0
240 -237 239 0
240 -237 128 0
-240 237 239 0
-240 237 128 0
240 -237 127 -130 0
240 -237 -127 130 0
-240 237 127 -130 0
-240 237 -127 130 0
240 237 -239 127 130 -128 0
240 237 -239 -127 -130 -128 0
-240 -237 -239 127 130 -128 0
-240 -237 -239 -127 -130 -128 0
242 239 -127 0
242 -239 127 0
-242 239 127 0
-242 -239 -127 0
241 130 -128 0
241 -130 128 0
-241 130 128 0
-241 -130 -128 0
243 -240 242 0
243 -240 126 0
-243 240 242 0
-243 240 126 0
243 -240 125 -128 0
243 -240 -125 128 0
-243 240 125 -128 0
-243 240 -125 128 0
243 240 -242 125 128 -126 0
243 240 -242 -125 -128 -126 0
-243 -240 -242 125 128 -126 0
-243 -240 -242 -125 -128 -126 0
245 242 -125 0
245 -242 125 0
-245 242 125 0
-245 -242 -125 0
244 128 -126 0
244 -128 126 0
-244 128 126 0
-244 -128 -126 0
246 -243 245 0
246 -243 124 0
-246 243 245 0
-246 243 124 0
246 -243 123 -126 0
246 -243 -123 126 0
-246 243 123 -126 0
-246 243 -123 126 0
246 243 -245 123 126 -124 0
246 243 -245 -123 -126 -124 0
-246 -243 -245 123 126 -124 0
-246 -243 -245 -123 -126 -124 0
248 245 -123 0
248 -245 123 0
-248 245 123 0
-248 -245 -123 0
247 126 -124 0
247 -126 124 0
-247 126 124 0
-247 -126 -124 0
249 -246 248 0
249 -246 122 0
-249 246 248 0
-249 246 122 0
249 -246 121 -124 0
249 -246 -121 124 0
-249 246 121 -124 0
-249 246 -121 124 0
249 246 -248 121 124 -122 0
249 246 -248 -121 -124 -122 0
-249 -246 -248 121 124 -122 0
-249 -246 -248 -121 -124 -122 0
251 248 -121 0
251 -248 121 0
-251 248 121 0
-251 -248 -121 0
250 124 -122 0
250 -124 122 0
-250 124 122 0
-250 -124 -122 0
252 -249 251 0
252 -249 120 0
-252 249 251 0
-252 249 120 0
252 -249 119 -122 0
252 -249 -119 122 0
-252 249 119 -122 0
-252 249 -119 122 0
252 249 -251 119 122 -120 0
252 249 -251 -119 -122 -120 0
-252 -249 -251 119 122 -120 0
-252 -249 -251 -119 -122 -120 0
254 251 -119 0
254 -251 119 0
-254 251 119 0
-254 -251 -119 0
253 122 -120 0
253 -122 120 0
-253 122 120 0
-253 -122 -120 0
255 -252 254 0
255 -252 118 0
-255 252 254 0
-255 252 118 0
255 -252 117 -120 0
255 -252 -117 120 0
-255 252 117 -120 0
-255 252 -117 120 0
255 252 -254 117 120 -118 0
255 252 -254 -117 -120 -118 0
-255 -252 -254 117 120 -118 0
-255 -252 -254 -117 -120 -118 0
257 254 -117 0
257 -254 117 0
-257 254 117 0
-257 -254 -117 0
256 120 -118 0
256 -120 118 0
-256 120 118 0
-256 -120 -118 0
258 -255 257 0
258 -255 116 0
-258 255 257 0
-258 255 116 0
258 -255 115 -118 0
258 -255 -115 118 0
-258 255 115 -118 0
-258 255 -115 118 0
258 255 -257 115 118 -116 0
258 255 -257 -115 -118 -116 0
-258 -255 -257 115 118 -116 0
-258 -255 -257 -115 -118 -116 0
260 257 -115 0
260 -257 115 0
-260 257 115 0
-260 -257 -115 0
259 118 -116 0
259 -118 116 0
-259 118 116 0
-259 -118 -116 0
261 -258 260 0
261 -258 114 0
-261 258 260 0
-261 258 114 0
261 -258 113 -116 0
261 -258 -113 116 0
-261 258 113 -116 0
-261 258 -113 116 0
261 258 -260 113 116 -114 0
261 258 -260 -113 -116 -114 0
-261 -258 -260 113 116 -114 0
-261 -258 -260 -113 -116 -114 0
263 260 -113 0
263 -260 113 0
-263 260 113 0
-263 -260 -113 0
262 116 -114 0
262 -116 114 0
-262 116 114 0
-262 -116 -114 0
264 -261 263 0
264 -261 112 0
-264 261 263 0
-264 261 112 0
264 -261 111 -114 0
264 -261 -111 114 0
-264 261 111 -114 0
-264 261 -111 114 0
264 261 -263 111 114 -112 0
264 261 -263 -111 -114 -112 0
-264 -261 -263 111 114 -112 0
-264 -261 -263 -111 -114 -112 0
266 263 -111 0
266 -263 111 0
-266 263 111 0
-266 -263 -111 0
265 114 -112 0
265 -114 112 0
-265 114 112 0
-265 -114 -112 0
267 -264 266 0
267 -264 110 0
-267 264 266 0
-267 264 110 0
267 -264 109 -112 0
267 -264 -109 112 0
-267 264 109 -112 0
-267 264 -109 112 0
267 264 -266 109 112 -110 0
267 264 -266 -109 -112 -110 0
-267 -264 -266 109 112 -110 0
-267 -264 -266 -109 -112 -110 0
269 266 -109 0
269 -266 109 0
-269 266 109 0
-269 -266 -109 0
268 112 -110 0
268 -112 110 0
-268 112 110 0
-268 -112 -110 0
270 -267 269 0
270 -267 108 0
-270 267 269 0
-270 267 108 0
270 -267 107 -110 0
270 -267 -107 110 0
-270 267 107 -110 0
-270 267 -107 110 0
270 267 -269 107 110 -108 0
270 267 -269 -107 -110 -108 0
-270 -267 -269 107 110 -108 0
-270 -267 -269 -107 -110 -108 0
272 269 -107 0
272 -269 107 0
-272 269 107 0
-272 -269 -107 0
271 110 -108 0
271 -110 108 0
-271 110 108 0
-271 -110 -108 0
273 -270 272 0
273 -270 106 0
-273 270 272 0
-273 270 106 0
273 -270 105 -108 0
273 -270 -105 108 0
-273 270 105 -108 0
-273 270 -105 108 0
273 270 -272 105 108 -106 0
273 270 -272 -105 -108 -106 0
-273 -270 -272 105 108 -106 0
-273 -270 -272 -105 -108 -106 0
275 272 -105 0
275 -272 105 0
-275 272 105 0
-275 -272 -105 0
274 108 -106 0
274 -108 106 0
-274 108 106 0
-274 -108 -106 0
276 -273 275 0
276 -273 104 0
-276 273 275 0
-276 273 104 0
276 -273 103 -106 0
276 -273 -103 106 0
-276 273 103 -106 0
-276 273 -103 106 0
276 273 -275 103 106 -104 0
276 273 -275 -103 -106 -104 0
-276 -273 -275 103 106 -104 0
-276 -273 -275 -103 -106 -104 0
278 275 -103 0
278 -275 103 0
-278 275 103 0
-278 -275 -103 0
277 106 -104 0
277 -106 104 0
-277 106 104 0
-277 -106 -104 0
279 -276 278 0
279 -276 102 0
-279 276 278 0
-279 276 102 0
279 -276 101 -104 0
279 -276 -101 104 0
-279 276 101 -104 0
-279 276 -101 104 0
279 276 -278 101 104 -102 0
279 276 -278 -101 -104 -102 0
-279 -276 -278 101 104 -102 0
-279 -276 -278 -101 -104 -102 0
281 278 -101 0
281 -278 101 0
-281 278 101 0
-281 -278 -101 0
280 104 -102 0
280 -104 102 0
-280 104 102 0
-280 -104 -102 0
282 -279 281 0
282 -279 100 0
-282 279 281 0
-282 279 100 0
282 -279 99 -102 0
282 -279 -99 102 0
-282 279 99 -102 0
-282 279 -99 102 0
282 279 -281 99 102 -100 0
282 279 -281 -99 -102 -100 0
-282 -279 -281 99 102 -100 0
-282 -279 -281 -99 -102 -100 0
284 281 -99 0
284 -281 99 0
-284 281 99 0
-284 -281 -99 0
283 102 -100 0
283 -102 100 0
-283 102 100 0
-283 -102 -100 0
285 -282 284 0
285 -282 98 0
-285 282 284 0
-285 282 98 0
285 -282 97 -100 0
285 -282 -97 100 0
-285 282 97 -100 0
-285 282 -97 100 0
285 282 -284 97 100 -98 0
285 282 -284 -97 -100 -98 0
-285 -282 -284 97 100 -98 0
-285 -282 -284 -97 -100 -98 0
287 284 -97 0
287 -284 97 0
-287 284 97 0
-287 -284 -97 0
286 100 -98 0
286 -100 98 0
-286 100 98 0
-286 -100 -98 0
288 -285 287 0
288 -285 96 0
-288 285 287 0
-288 285 96 0
288 -285 95 -98 0
288 -285 -95 98 0
-288 285 95 -98 0
-288 285 -95 98 0
288 285 -287 95 98 -96 0
288 285 -287 -95 -98 -96 0
-288 -285 -287 95 98 -96 0
-288 -285 -287 -95 -98 -96 0
290 287 -95 0
290 -287 95 0
-290 287 95 0
-290 -287 -95 0
289 98 -96 0
289 -98 96 0
-289 98 96 0
-289 -98 -96 0
291 -288 290 0
291 -288 94 0
-291 288 290 0
-291 288 94 0
291 -288 93 -96 0
291 -288 -93 96 0
-291 288 93 -96 0
-291 288 -93 96 0
291 288 -290 93 96 -94 0
291 288 -290 -93 -96 -94 0
-291 -288 -290 93 96 -94 0
-291 -288 -290 -93 -96 -94 0
293 290 -93 0
293 -290 93 0
-293 290 93 0
-293 -290 -93 0
292 96 -94 0
292 -96 94 0
-292 96 94 0
-292 -96 -94 0
294 -291 293 0
294 -291 92 0
-294 291 293 0
-294 291 92 0
294 -291 91 -94 0
294 -291 -91 94 0
-294 291 91 -94 0
-294 291 -91 94 0
294 291 -293 91 94 -92 0
294 291 -293 -91 -94 -92 0
-294 -291 -293 91 94 -92 0
-294 -291 -293 -91 -94 -92 0
296 293 -91 0
296 -293 91 0
-296 293 91 0
-296 -293 -91 0
295 94 -92 0
295 -94 92 0
-295 94 92 0
-295 -94 -92 0
297 -294 296 0
297 -294 90 0
-297 294 296 0
-297 294 90 0
297 -294 89 -92 0
297 -294 -89 92 0
-297 294 89 -92 0
-297 294 -89 92 0
297 294 -296 89 92 -90 0
297 294 -296 -89 -92 -90 0
-297 -294 -296 89 92 -90 0
-297 -294 -296 -89 -92 -90 0
299 296 -89 0
299 -296 89 0
-299 296 89 0
-299 -296 -89 0
298 92 -90 0
298 -92 90 0
-298 92 90 0
-298 -92 -90 0
300 -297 299 0
300 -297 88 0
-300 297 299 0
-300 297 88 0
300 -297 87 -90 0
300 -297 -87 90 0
-300 297 87 -90 0
-300 297 -87 90 0
300 297 -299 87 90 -88 0
300 297 -299 -87 -90 -88 0
-300 -297 -299 87 90 -88 0
-300 -297 -299 -87 -90 -88 0
302 299 -87 0
302 -299 87 0
-302 299 87 0
-302 -299 -87 0
301 90 -88 0
301 -90 88 0
-301 90 88 0
-301 -90 -88 0
303 -300 302 0
303 -300 86 0
-303 300 302 0
-303 300 86 0
303 -300 85 -88 0
303 -300 -85 88 0
-303 300 85 -88 0
-303 300 -85 88 0
303 300 -302 85 88 -86 0
303 300 -302 -85 -88 -86 0
-303 -300 -302 85 88 -86 0
-303 -300 -302 -85 -88 -86 0
305 302 -85 0
305 -302 85 0
-305 302 85 0
-305 -302 -85 0
304 88 -86 0
304 -88 86 0
-304 88 86 0
-304 -88 -86 0
306 -303 305 0
306 -303 84 0
-306 303 305 0
-306 303 84 0
306 -303 83 -86 0
306 -303 -83 86 0
-306 303 83 -86 0
-306 303 -83 86 0
306 303 -305 83 86 -84 0
306 303 -305 -83 -86 -84 0
-306 -303 -305 83 86 -84 0
-306 -303 -305 -83 -86 -84 0
308 305 -83 0
308 -305 83 0
-308 305 83 0
-308 -305 -83 0
307 86 -84 0
307 -86 84 0
-307 86 84 0
-307 -86 -84 0
309 -306 308 0
309 -306 82 0
-309 306 308 0
-309 306 82 0
309 -306 81 -84 0
309 -306 -81 84 0
-309 306 81 -84 0
-309 306 -81 84 0
309 306 -308 81 84 -82 0
309 306 -308 -81 -84 -82 0
-309 -306 -308 81 84 -82 0
-309 -306 -308 -81 -84 -82 0
311 308 -81 0
311 -308 81 0
-311 308 81 0
-311 -308 -81 0
310 84 -82 0
310 -84 82 0
-310 84 82 0
-310 -84 -82 0
312 -309 311 0
312 -309 80 0
-312 309 311 0
-312 309 80 0
312 -309 79 -82 0
312 -309 -79 82 0
-312 309 79 -82 0
-312 309 -79 82 0
312 309 -311 79 82 -80 0
312 309 -311 -79 -82 -80 0
-312 -309 -311 79 82 -80 0
-312 -309 -311 -79 -82 -80 0
314 311 -79 0
314 -311 79 0
-314 311 79 0
-314 -311 -79 0
313 82 -80 0
313 -82 80 0
-313 82 80 0
-313 -82 -80 0
315 -312 314 0
315 -312 78 0
-315 312 314 0
-315 312 78 0
315 -312 77 -80 0
315 -312 -77 80 0
-315 312 77 -80 0
-315 312 -77 80 0
315 312 -314 77 80 -78 0
315 312 -314 -77 -80 -78 0
-315 -312 -314 77 80 -78 0
-315 -312 -314 -77 -80 -78 0
317 314 -77 0
317 -314 77 0
-317 314 77 0
-317 -314 -77 0
316 80 -78 0
316 -80 78 0
-316 80 78 0
-316 -80 -78 0
318 -315 317 0
318 -315 76 0
-318 315 317 0
-318 315 76 0
318 -315 75 -78 0
318 -315 -75 78 0
-318 315 75 -78 0
-318 315 -75 78 0
318 315 -317 75 78 -76 0
318 315 -317 -75 -78 -76 0
-318 -315 -317 75 78 -76 0
-318 -315 -317 -75 -78 -76 0
320 317 -75 0
320 -317 75 0
-320 317 75 0
-320 -317 -75 0
319 78 -76 0
319 -78 76 0
-319 78 76 0
-319 -78 -76 0
321 -318 320 0
321 -318 74 0
-321 318 320 0
-321 318 74 0
321 -318 73 -76 0
321 -318 -73 76 0
-321 318 73 -76 0
-321 318 -73 76 0
321 318 -320 73 76 -74 0
321 318 -320 -73 -76 -74 0
-321 -318 -320 73 76 -74 0
-321 -318 -320 -73 -76 -74 0
323 320 -73 0
323 -320 73 0
-323 320 73 0
-323 -320 -73 0
322 76 -74 0
322 -76 74 0
-322 76 74 0
-322 -76 -74 0
324 -321 323 0
324 -321 72 0
-324 321 323 0
-324 321 72 0
324 -321 71 -74 0
324 -321 -71 74 0
-324 321 71 -74 0
-324 321 -71 74 0
324 321 -323 71 74 -72 0
324 321 -323 -71 -74 -72 0
-324 -321 -323 71 74 -72 0
-324 -321 -323 -71 -74 -72 0
326 323 -71 0
326 -323 71 0
-326 323 71 0
-326 -323 -71 0
325 74 -72 0
325 -74 72 0
-325 74 72 0
-325 -74 -72 0
327 -324 326 0
327 -324 70 0
-327 324 326 0
-327 324 70 0
327 -324 69 -72 0
327 -324 -69 72 0
-327 324 69 -72 0
-327 324 -69 72 0
327 324 -326 69 72 -70 0
327 324 -326 -69 -72 -70 0
-327 -324 -326 69 72 -70 0
-327 -324 -326 -69 -72 -70 0
329 326 -69 0
329 -326 69 0
-329 326 69 0
-329 -326 -69 0
328 72 -70 0
328 -72 70 0
-328 72 70 0
-328 -72 -70 0
330 -327 329 0
330 -327 68 0
-330 327 329 0
-330 327 68 0
330 -327 67 -70 0
330 -327 -67 70 0
-330 327 67 -70 0
-330 327 -67 70 0
330 327 -329 67 70 -68 0
330 327 -329 -67 -70 -68 0
-330 -327 -329 67 70 -68 0
-330 -327 -329 -67 -70 -68 0
332 329 -67 0
332 -329 67 0
-332 329 67 0
-332 -329 -67 0
331 70 -68 0
331 -70 68 0
-331 70 68 0
-331 -70 -68 0
333 -330 332 0
333 -330 66 0
-333 330 332 0
-333 330 66 0
333 -330 65 -68 0
333 -330 -65 68 0
-333 330 65 -68 0
-333 330 -65 68 0
333 330 -332 65 68 -66 0
333 330 -332 -65 -68 -66 0
-333 -330 -332 65 68 -66 0
-333 -330 -332 -65 -68 -66 0
335 332 -65 0
335 -332 65 0
-335 332 65 0
-335 -332 -65 0
334 68 -66 0
334 -68 66 0
-334 68 66 0
-334 -68 -66 0
336 -333 335 0
336 -333 64 0
-336 333 335 0
-336 333 64 0
336 -333 63 -66 0
336 -333 -63 66 0
-336 333 63 -66 0
-336 333 -63 66 0
336 333 -335 63 66 -64 0
336 333 -335 -63 -66 -64 0
-336 -333 -335 63 66 -64 0
-336 -333 -335 -63 -66 -64 0
338 335 -63 0
338 -335 63 0
-338 335 63 0
-338 -335 -63 0
337 66 -64 0
337 -66 64 0
-337 66 64 0
-337 -66 -64 0
339 -336 338 0
339 -336 62 0
-339 336 338 0
-339 336 62 0
339 -336 61 -64 0
339 -336 -61 64 0
-339 336 61 -64 0
-339 336 -61 64 0
339 336 -338 61 64 -62 0
339 336 -338 -61 -64 -62 0
-339 -336 -338 61 64 -62 0
-339 -336 -338 -61 -64 -62 0
341 338 -61 0
341 -338 61 0
-341 338 61 0
-341 -338 -61 0
340 64 -62 0
340 -64 62 0
-340 64 62 0
-340 -64 -62 0
342 -339 341 0
342 -339 60 0
-342 339 341 0
-342 339 60 0
342 -339 59 -62 0
342 -339 -59 62 0
-342 339 59 -62 0
-342 339 -59 62 0
342 339 -341 59 62 -60 0
342 339 -341 -59 -62 -60 0
-342 -339 -341 59 62 -60 0
-342 -339 -341 -59 -62 -60 0
344 341 -59 0
344 -341 59 0
-344 341 59 0
-344 -341 -59 0
343 62 -60 0
343 -62 60 0
-343 62 60 0
-343 -62 -60 0
345 -342 344 0
345 -342 58 0
-345 342 344 0
-345 342 58 0
345 -342 57 -60 0
345 -342 -57 60 0
-345 342 57 -60 0
-345 342 -57 60 0
345 342 -344 57 60 -58 0
345 342 -344 -57 -60 -58 0
-345 -342 -344 57 60 -58 0
-345 -342 -344 -57 -60 -58 0
347 344 -57 0
347 -344 57 0
-347 344 57 0
-347 -344 -57 0
346 60 -58 0
346 -60 58 0
-346 60 58 0
-346 -60 -58 0
348 -345 347 0
348 -345 56 0
-348 345 347 0
-348 345 56 0
348 -345 55 -58 0
348 -345 -55 58 0
-348 345 55 -58 0
-348 345 -55 58 0
348 345 -347 55 58 -56 0
348 345 -347 -55 -58 -56 0
-348 -345 -347 55 58 -56 0
-348 -345 -347 -55 -58 -56 0
350 347 -55 0
350 -347 55 0
-350 347 55 0
-350 -347 -55 0
349 58 -56 0
349 -58 56 0
-349 58 56 0
-349 -58 -56 0
351 -348 350 0
351 -348 54 0
-351 348 350 0
-351 348 54 0
351 -348 53 -56 0
351 -348 -53 56 0
-351 348 53 -56 0
-351 348 -53 56 0
351 348 -350 53 56 -54 0
351 348 -350 -53 -56 -54 0
-351 -348 -350 53 56 -54 0
-351 -348 -350 -53 -56 -54 0
353 350 -53 0
353 -350 53 0
-353 350 53 0
-353 -350 -53 0
352 56 -54 0
352 -56 54 0
-352 56 54 0
-352 -56 -54 0
354 -351 353 0
354 -351 52 0
-354 351 353 0
-354 351 52 0
354 -351 51 -54 0
354 -351 -51 54 0
-354 351 51 -54 0
-354 351 -51 54 0
354 351 -353 51 54 -52 0
354 351 -353 -51 -54 -52 0
-354 -351 -353 51 54 -52 0
-354 -351 -353 -51 -54 -52 0
356 353 -51 0
356 -353 51 0
-356 353 51 0
-356 -353 -51 0
355 54 -52 0
355 -54 52 0
-355 54 52 0
-355 -54 -52 0
357 -354 356 0
357 -354 50 0
-357 354 356 0
-357 354 50 0
357 -354 49 -52 0
357 -354 -49 52 0
-357 354 49 -52 0
-357 354 -49 52 0
357 354 -356 49 52 -50 0
357 354 -356 -49 -52 -50 0
-357 -354 -356 49 52 -50 0
-357 -354 -356 -49 -52 -50 0
359 356 -49 0
359 -356 49 0
-359 356 49 0
-359 -356 -49 0
358 52 -50 0
358 -52 50 0
-358 52 50 0
-358 -52 -50 0
360 -357 359 0
360 -357 48 0
-360 357 359 0
-360 357 48 0
360 -357 47 -50 0
360 -357 -47 50 0
-360 357 47 -50 0
-360 357 -47 50 0
360 357 -359 47 50 -48 0
360 357 -359 -47 -50 -48 0
-360 -357 -359 47 50 -48 0
-360 -357 -359 -47 -50 -48 0
362 359 -47 0
362 -359 47 0
-362 359 47 0
-362 -359 -47 0
361 50 -48 0
361 -50 48 0
-361 50 48 0
-361 -50 -48 0
363 -360 362 0
363 -360 46 0
-363 360 362 0
-363 360 46 0
363 -360 45 -48 0
363 -360 -45 48 0
-363 360 45 -48 0
-363 360 -45 48 0
363 360 -362 45 48 -46 0
363 360 -362 -45 -48 -46 0
-363 -360 -362 45 48 -46 0
-363 -360 -362 -45 -48 -46 0
365 362 -45 0
365 -362 45 0
-365 362 45 0
-365 -362 -45 0
364 48 -46 0
364 -48 46 0
-364 48 46 0
-364 -48 -46 0
366 -363 365 0
366 -363 44 0
-366 363 365 0
-366 363 44 0
366 -363 43 -46 0
366 -363 -43 46 0
-366 363 43 -46 0
-366 363 -43 46 0
366 363 -365 43 46 -44 0
366 363 -365 -43 -46 -44 0
-366 -363 -365 43 46 -44 0
-366 -363 -365 -43 -46 -44 0
368 365 -43 0
368 -365 43 0
-368 365 43 0
-368 -365 -43 0
367 46 -44 0
367 -46 44 0
-367 46 44 0
-367 -46 -44 0
369 -366 368 0
369 -366 42 0
-369 366 368 0
-369 366 42 0
369 -366 41 -44 0
369 -366 -41 44 0
-369 366 41 -44 0
-369 366 -41 44 0
369 366 -368 41 44 -42 0
369 366 -368 -41 -44 -42 0
-369 -366 -368 41 44 -42 0
-369 -366 -368 -41 -44 -42 0
371 368 -41 0
371 -368 41 0
-371 368 41 0
-371 -368 -41 0
370 44 -42 0
370 -44 42 0
-370 44 42 0
-370 -44 -42 0
372 -369 371 0
372 -369 40 0
-372 369 371 0
-372 369 40 0
372 -369 39 -42 0
372 -369 -39 42 0
-372 369 39 -42 0
-372 369 -39 42 0
372 369 -371 39 42 -40 0
372 369 -371 -39 -42 -40 0
-372 -369 -371 39 42 -40 0
-372 -369 -371 -39 -42 -40 0
374 371 -39 0
374 -371 39 0
-374 371 39 0
-374 -371 -39 0
373 42 -40 0
373 -42 40 0
-373 42 40 0
-373 -42 -40 0
375 -372 374 0
375 -372 38 0
-375 372 374 0
-375 372 38 0
375 -372 37 -40 0
375 -372 -37 40 0
-375 372 37 -40 0
-375 372 -37 40 0
375 372 -374 37 40 -38 0
375 372 -374 -37 -40 -38 0
-375 -372 -374 37 40 -38 0
-375 -372 -374 -37 -40 -38 0
377 374 -37 0
377 -374 37 0
-377 374 37 0
-377 -374 -37 0
376 40 -38 0
376 -40 38 0
-376 40 38 0
-376 -40 -38 0
378 -375 377 0
378 -375 36 0
-378 375 377 0
-378 375 36 0
378 -375 35 -38 0
378 -375 -35 38 0
-378 375 35 -38 0
-378 375 -35 38 0
378 375 -377 35 38 -36 0
378 375 -377 -35 -38 -36 0
-378 -375 -377 35 38 -36 0
-378 -375 -377 -35 -38 -36 0
380 377 -35 0
380 -377 35 0
-380 377 35 0
-380 -377 -35 0
379 38 -36 0
379 -38 36 0
-379 38 36 0
-379 -38 -36 0
381 -378 380 0
381 -378 34 0
-381 378 380 0
-381 378 34 0
381 -378 33 -36 0
381 -378 -33 36 0
-381 378 33 -36 0
-381 378 -33 36 0
381 378 -380 33 36 -34 0
381 378 -380 -33 -36 -34 0
-381 -378 -380 33 36 -34 0
-381 -378 -380 -33 -36 -34 0
383 380 -33 0
383 -380 33 0
-383 380 33 0
-383 -380 -33 0
382 36 -34 0
382 -36 34 0
-382 36 34 0
-382 -36 -34 0
384 -381 383 0
384 -381 32 0
-384 381 383 0
-384 381 32 0
384 -381 31 -34 0
384 -381 -31 34 0
-384 381 31 -34 0
-384 381 -31 34 0
384 381 -383 31 34 -32 0
384 381 -383 -31 -34 -32 0
-384 -381 -383 31 34 -32 0
-384 -381 -383 -31 -34 -32 0
386 383 -31 0
386 -383 31 0
-386 383 31 0
-386 -383 -31 0
385 34 -32 0
385 -34 32 0
-385 34 32 0
-385 -34 -32 0
387 -384 386 0
387 -384 30 0
-387 384 386 0
-387 384 30 0
387 -384 29 -32 0
387 -384 -29 32 0
-387 384 29 -32 0
-387 384 -29 32 0
387 384 -386 29 32 -30 0
387 384 -386 -29 -32 -30 0
-387 -384 -386 29 32 -30 0
-387 -384 -386 -29 -32 -30 0
389 386 -29 0
389 -386 29 0
-389 386 29 0
-389 -386 -29 0
388 32 -30 0
388 -32 30 0
-388 32 30 0
-388 -32 -30 0
390 -387 389 0
390 -387 28 0
-390 387 389 0
-390 387 28 0
390 -387 27 -30 0
390 -387 -27 30 0
-390 387 27 -30 0
-390 387 -27 30 0
390 387 -389 27 30 -28 0
390 387 -389 -27 -30 -28 0
-390 -387 -389 27 30 -28 0
-390 -387 -389 -27 -30 -28 0
392 389 -27 0
392 -389 27 0
-392 389 27 0
-392 -389 -27 0
391 30 -28 0
391 -30 28 0
-391 30 28 0
-391 -30 -28 0
393 -390 392 0
393 -390 26 0
-393 390 392 0
-393 390 26 0
393 -390 25 -28 0
393 -390 -25 28 0
-393 390 25 -28 0
-393 390 -25 28 0
393 390 -392 25 28 -26 0
393 390 -392 -25 -28 -26 0
-393 -390 -392 25 28 -26 0
-393 -390 -392 -25 -28 -26 0
395 392 -25 0
395 -392 25 0
-395 392 25 0
-395 -392 -25 0
394 28 -26 0
394 -28 26 0
-394 28 26 0
-394 -28 -26 0
396 -393 395 0
396 -393 24 0
-396 393 395 0
-396 393 24 0
396 -393 23 -26 0
396 -393 -23 26 0
-396 393 23 -26 0
-396 393 -23 26 0
396 393 -395 23 26 -24 0
396 393 -395 -23 -26 -24 0
-396 -393 -395 23 26 -24 0
-396 -393 -395 -23 -26 -24 0
398 395 -23 0
398 -395 23 0
-398 395 23 0
-398 -395 -23 0
397 26 -24 0
397 -26 24 0
-397 26 24 0
-397 -26 -24 0
399 -396 398 0
399 -396 22 0
-399 396 398 0
-399 396 22 0
399 -396 21 -24 0
399 -396 -21 24 0
-399 396 21 -24 0
-399 396 -21 24 0
399 396 -398 21 24 -22 0
399 396 -398 -21 -24 -22 0
-399 -396 -398 21 24 -22 0
-399 -396 -398 -21 -24 -22 0
401 398 -21 0
401 -398 21 0
-401 398 21 0
-401 -398 -21 0
400 24 -22 0
400 -24 22 0
-400 24 22 0
-400 -24 -22 0
402 -399 401 0
402 -399 20 0
-402 399 401 0
-402 399 20 0
402 -399 19 -22 0
402 -399 -19 22 0
-402 399 19 -22 0
-402 399 -19 22 0
402 399 -401 19 22 -20 0
402 399 -401 -19 -22 -20 0
-402 -399 -401 19 22 -20 0
-402 -399 -401 -19 -22 -20 0
404 401 -19 0
404 -401 19 0
-404 401 19 0
-404 -401 -19 0
403 22 -20 0
403 -22 20 0
-403 22 20 0
-403 -22 -20 0
405 -402 404 0
405 -402 18 0
-405 402 404 0
-405 402 18 0
405 -402 17 -20 0
405 -402 -17 20 0
-405 402 17 -20 0
-405 402 -17 20 0
405 402 -404 17 20 -18 0
405 402 -404 -17 -20 -18 0
-405 -402 -404 17 20 -18 0
-405 -402 -404 -17 -20 -18 0
407 404 -17 0
407 -404 17 0
-407 404 17 0
-407 -404 -17 0
406 20 -18 0
406 -20 18 0
-406 20 18 0
-406 -20 -18 0
408 -405 407 0
408 -405 16 0
-408 405 407 0
-408 405 16 0
408 -405 15 -18 0
408 -405 -15 18 0
-408 405 15 -18 0
-408 405 -15 18 0
408 405 -407 15 18 -16 0
408 405 -407 -15 -18 -16 0
-408 -405 -407 15 18 -16 0
-408 -405 -407 -15 -18 -16 0
410 407 -15 0
410 -407 15 0
-410 407 15 0
-410 -407 -15 0
409 18 -16 0
409 -18 16 0
-409 18 16 0
-409 -18 -16 0
411 -408 410 0
411 -408 14 0
-411 408 410 0
-411 408 14 0
411 -408 13 -16 0
411 -408 -13 16 0
-411 408 13 -16 0
-411 408 -13 16 0
411 408 -410 13 16 -14 0
411 408 -410 -13 -16 -14 0
-411 -408 -410 13 16 -14 0
-411 -408 -410 -13 -16 -14 0
413 410 -13 0
413 -410 13 0
-413 410 13 0
-413 -410 -13 0
412 16 -14 0
412 -16 14 0
-412 16 14 0
-412 -16 -14 0
414 -411 413 0
414 -411 12 0
-414 411 413 0
-414 411 12 0
414 -411 11 -14 0
414 -411 -11 14 0
-414 411 11 -14 0
-414 411 -11 14 0
414 411 -413 11 14 -12 0
414 411 -413 -11 -14 -12 0
-414 -411 -413 11 14 -12 0
-414 -411 -413 -11 -14 -12 0
416 413 -11 0
416 -413 11 0
-416 413 11 0
-416 -413 -11 0
415 14 -12 0
415 -14 12 0
-415 14 12 0
-415 -14 -12 0
417 -414 416 0
417 -414 10 0
-417 414 416 0
-417 414 10 0
417 -414 9 -12 0
417 -414 -9 12 0
-417 414 9 -12 0
-417 414 -9 12 0
417 414 -416 9 12 -10 0
417 414 -416 -9 -12 -10 0
-417 -414 -416 9 12 -10 0
-417 -414 -416 -9 -12 -10 0
419 416 -9 0
419 -416 9 0
-419 416 9 0
-419 -416 -9 0
418 12 -10 0
418 -12 10 0
-418 12 10 0
-418 -12 -10 0
420 -417 419 0
420 -417 8 0
-420 417 419 0
-420 417 8 0
420 -417 7 -10 0
420 -417 -7 10 0
-420 417 7 -10 0
-420 417 -7 10 0
420 417 -419 7 10 -8 0
420 417 -419 -7 -10 -8 0
-420 -417 -419 7 10 -8 0
-420 -417 -419 -7 -10 -8 0
422 419 -7 0
422 -419 7 0
-422 419 7 0
-422 -419 -7 0
421 10 -8 0
421 -10 8 0
-421 10 8 0
-421 -10 -8 0
423 -420 422 0
423 -420 6 0
-423 420 422 0
-423 420 6 0
423 -420 5 -8 0
423 -420 -5 8 0
-423 420 5 -8 0
-423 420 -5 8 0
423 420 -422 5 8 -6 0
423 420 -422 -5 -8 -6 0
-423 -420 -422 5 8 -6 0
-423 -420 -422 -5 -8 -6 0
425 422 -5 0
425 -422 5 0
-425 422 5 0
-425 -422 -5 0
424 8 -6 0
424 -8 6 0
-424 8 6 0
-424 -8 -6 0
426 -423 425 0
426 -423 4 0
-426 423 425 0
-426 423 4 0
426 -423 3 -6 0
426 -423 -3 6 0
-426 423 3 -6 0
-426 423 -3 6 0
426 423 -425 3 6 -4 0
426 423 -425 -3 -6 -4 0
-426 -423 -425 3 6 -4 0
-426 -423 -425 -3 -6 -4 0
428 425 -3 0
428 -425 3 0
-428 425 3 0
-428 -425 -3 0
427 6 -4 0
427 -6 4 0
-427 6 4 0
-427 -6 -4 0
429 -426 428 0
429 -426 2 0
-429 426 428 0
-429 426 2 0
429 -426 1 -4 0
429 -426 -1 4 0
-429 426 1 -4 0
-429 426 -1 4 0
429 426 -428 1 4 -2 0
429 426 -428 -1 -4 -2 0
-429 -426 -428 1 4 -2 0
-429 -426 -428 -1 -4 -2 0
431 428 -1 0
431 -428 1 0
-431 428 1 0
-431 -428 -1 0
430 4 -2 0
430 -4 2 0
-430 4 2 0
-430 -4 -2 0
